2025-02-23 18:52:33,773 - INFO - Set parameter WLSAccessID
2025-02-23 18:52:33,775 - INFO - Set parameter WLSSecret
2025-02-23 18:52:33,775 - INFO - Set parameter LicenseID to value 2626770
2025-02-23 18:52:33,797 - INFO - Academic license 2626770 - for non-commercial use only - registered to fa___@uw.edu
2025-02-23 18:52:33,799 - INFO - Initialization complete
2025-02-23 18:52:36,159 - INFO - Variables created successfully
2025-02-23 18:53:02,132 - INFO - Constraints added successfully
2025-02-23 18:53:02,188 - INFO - Objective function set successfully
2025-02-23 18:53:02,444 - INFO - Set parameter MIPGap to value 0.1
2025-02-23 18:53:02,444 - INFO - Set parameter TimeLimit to value 3600
2025-02-23 18:53:02,445 - INFO - Set parameter MIPFocus to value 1
2025-02-23 18:53:02,445 - INFO - Set parameter Presolve to value 2
2025-02-23 18:53:02,445 - INFO - Set parameter NodefileStart to value 0.5
2025-02-23 18:53:02,445 - INFO - Set parameter NodefileDir to value "c:/path/to/fast/disk"
2025-02-23 18:53:02,445 - INFO - Set parameter Threads to value 7
2025-02-23 18:53:03,696 - INFO - Greedy initial solution generated successfully
2025-02-23 18:53:03,697 - INFO - Starting optimization - accepting solutions within 10% of optimal
2025-02-23 18:53:03,697 - INFO - Maximum possible satisfied requests: 4800
2025-02-23 18:53:04,129 - INFO - Gurobi Optimizer version 12.0.1 build v12.0.1rc0 (win64 - Windows 11.0 (26100.2))
2025-02-23 18:53:04,130 - INFO - 
2025-02-23 18:53:04,130 - INFO - CPU model: AMD Ryzen 7 2700X Eight-Core Processor, instruction set [SSE2|AVX|AVX2]
2025-02-23 18:53:04,130 - INFO - Thread count: 8 physical cores, 16 logical processors, using up to 7 threads
2025-02-23 18:53:04,130 - INFO - 
2025-02-23 18:53:04,130 - INFO - Non-default parameters:
2025-02-23 18:53:04,130 - INFO - TimeLimit  3600
2025-02-23 18:53:04,131 - INFO - MIPGap  0.1
2025-02-23 18:53:04,131 - INFO - MIPFocus  1
2025-02-23 18:53:04,131 - INFO - NodefileStart  0.5
2025-02-23 18:53:04,131 - INFO - Presolve  2
2025-02-23 18:53:04,131 - INFO - Threads  7
2025-02-23 18:53:04,131 - INFO - 
2025-02-23 18:53:04,133 - INFO - Academic license 2626770 - for non-commercial use only - registered to fa___@uw.edu
2025-02-23 18:53:04,133 - INFO - Optimize a model with 1694510 rows, 632518 columns and 4629116 nonzeros
2025-02-23 18:53:04,187 - INFO - Model fingerprint: 0x67e6fd18
2025-02-23 18:53:04,188 - INFO - Variable types: 0 continuous, 632518 integer (632518 binary)
2025-02-23 18:53:04,195 - INFO - Coefficient statistics:
2025-02-23 18:53:04,195 - INFO -   Matrix range     [1e+00, 1e+00]
2025-02-23 18:53:04,195 - INFO -   Objective range  [1e+00, 1e+00]
2025-02-23 18:53:04,195 - INFO -   Bounds range     [1e+00, 1e+00]
2025-02-23 18:53:04,197 - INFO -   RHS range        [1e+00, 4e+01]
2025-02-23 18:53:04,197 - INFO - 
2025-02-23 18:53:04,233 - INFO - User MIP start did not produce a new incumbent solution
2025-02-23 18:53:04,252 - INFO - User MIP start violates constraint course_requirement_ST001_Math_1 by 1.000000000
2025-02-23 18:53:04,254 - INFO - 
2025-02-23 18:53:09,863 - INFO - Presolve removed 472 rows and 28 columns (presolve time = 5s)...
2025-02-23 18:53:14,844 - INFO - Presolve removed 472 rows and 28 columns (presolve time = 10s)...
2025-02-23 18:53:19,843 - INFO - Presolve removed 472 rows and 28 columns (presolve time = 15s)...
2025-02-23 18:53:24,835 - INFO - Presolve removed 472 rows and 28 columns (presolve time = 20s)...
2025-02-23 18:53:29,840 - INFO - Presolve removed 472 rows and 28 columns (presolve time = 25s)...
2025-02-23 18:53:34,852 - INFO - Presolve removed 472 rows and 28 columns (presolve time = 30s)...
2025-02-23 18:53:39,843 - INFO - Presolve removed 472 rows and 28 columns (presolve time = 35s)...
2025-02-23 18:53:44,837 - INFO - Presolve removed 472 rows and 28 columns (presolve time = 40s)...
2025-02-23 18:53:49,834 - INFO - Presolve removed 472 rows and 28 columns (presolve time = 45s)...
2025-02-23 18:53:54,871 - INFO - Presolve removed 472 rows and 28 columns (presolve time = 50s)...
2025-02-23 18:53:59,848 - INFO - Presolve removed 472 rows and 28 columns (presolve time = 55s)...
2025-02-23 18:54:04,885 - INFO - Presolve removed 472 rows and 28 columns (presolve time = 60s)...
2025-02-23 18:54:09,867 - INFO - Presolve removed 472 rows and 28 columns (presolve time = 65s)...
2025-02-23 18:54:14,861 - INFO - Presolve removed 472 rows and 28 columns (presolve time = 70s)...
2025-02-23 18:54:19,838 - INFO - Presolve removed 472 rows and 28 columns (presolve time = 75s)...
2025-02-23 18:54:24,834 - INFO - Presolve removed 472 rows and 28 columns (presolve time = 80s)...
2025-02-23 18:54:29,837 - INFO - Presolve removed 472 rows and 28 columns (presolve time = 85s)...
2025-02-23 18:54:34,844 - INFO - Presolve removed 472 rows and 50 columns (presolve time = 90s)...
2025-02-23 18:59:56,985 - INFO - Presolve removed 472 rows and 50 columns (presolve time = 412s)...
